w=60;
n=73;
W=[33, 25, 16, 21, 12, 34, 14, 25, 9, 12, 23, 10, 10, 16, 12, 21, 14, 5, 6, 10, 14, 14, 16, 16, 6, 11, 8, 14, 13, 21, 6, 6, 3, 12, 16, 6, 6, 4, 13, 6, 12, 6, 12, 5, 7, 5, 6, 6, 3, 3, 5, 8, 2, 11, 3, 7, 3, 2, 2, 2, 4, 3, 4, 6, 6, 3, 6, 3, 2, 3, 4, 3, 2];
H=[14, 15, 18, 12, 18, 6, 13, 7, 18, 13, 6, 12, 12, 7, 9, 5, 7, 18, 15, 9, 6, 6, 5, 5, 13, 7, 9, 5, 5, 3, 9, 9, 18, 4, 3, 7, 7, 10, 3, 6, 3, 6, 3, 7, 5, 7, 5, 5, 9, 9, 5, 3, 12, 2, 7, 3, 7, 10, 9, 9, 4, 5, 3, 2, 2, 2, 1, 2, 3, 2, 1, 1, 1];